
/* Objective function */

max: 3.80x11 + 3.81x12 + 3.18x13 + 3.57x14 + 3.65x15 + 3.17x16 + 3.42x17 + 3.13x18 + 3.89x19 + 3.91x110 + 3.25x111 + 3.85x112 + 3.80x21 + 3.81x22 + 3.18x23 + 3.57x24 + 3.65x25 + 3.17x26 + 3.42x27 + 3.13x28 + 3.89x29 + 3.91x210 + 3.25x211 + 3.85x212 + 3.80x31 + 3.81x32 + 3.18x33 + 3.57x34 + 3.65x35 + 3.17x36 + 3.42x37 + 3.13x38 + 3.89x39 + 3.91x310 + 3.25x311 + 3.85x312 + 3.80x41 + 3.81x42 + 3.18x43 + 3.57x44 + 3.65x45 + 3.17x46 + 3.42x47 + 3.13x48 + 3.89x49 + 3.91x410 + 3.25x411 + 3.85x412;


/* Constraints */

Group1Size: x11 + x12 + x13 + x14 + x15 + x16 + x17 + x18 + x19 + x110 + x111 + x112 = 3;

Group2Size: x21 + x22 + x23 + x24 + x25 + x26 + x27 + x28 + x29 + x210 + x211 + x212 = 3;

Group3Size: x31 + x32 + x33 + x34 + x35 + x36 + x37 + x38 + x39 + x310 + x311 + x312 = 3;

Group4Size: x41 + x42 + x43 + x44 + x45 + x46 + x47 + x48 + x49 + x410 + x411 + x412 = 3;




Student1: x11 + x21 + x31 + x41 = 1;

Student2: x12 + x22 + x32 + x42 = 1;

Student3: x13 + x23 + x33 + x43 = 1;

Student4: x14 + x24 + x34 + x44 = 1;

Student5: x15 + x25 + x35 + x45 = 1;

Student6: x16 + x26 + x36 + x46 = 1;

Student7: x17 + x27 + x37 + x47 = 1;

Student8: x18 + x28 + x38 + x48 = 1;

Student9: x19 + x29 + x39 + x49 = 1;

Student10: x110 + x210 + x310 + x410 = 1;

Student11: x111 + x211 + x311 + x411 = 1;

Student12: x112 + x212 + x312 + x412 = 1;




Group1Exp: 9x11 + 5x12 + 9x13 + 5x14 + 9x15 + 6x16 + 7x17 + 7x18 + 6x19 + 5x110 + 5x111 + 7x112 >= 20;

Group2Exp: 9x11 + 5x12 + 9x13 + 5x14 + 9x15 + 6x16 + 7x17 + 7x18 + 6x19 + 5x110 + 5x111 + 7x112 >= 20;

Group3Exp: 9x11 + 5x12 + 9x13 + 5x14 + 9x15 + 6x16 + 7x17 + 7x18 + 6x19 + 5x110 + 5x111 + 7x112 >= 20;

Group4Exp: 9x11 + 5x12 + 9x13 + 5x14 + 9x15 + 6x16 + 7x17 + 7x18 + 6x19 + 5x110 + 5x111 + 7x112 >= 20;




Group1AB: .6x11 + .6x12 + .4x13 + .6x14 + .4x15 + .6x16 + .6x17 + .4x18 + .4x19 + .6x110 + .4x111 + .4x112 >= 1.4;

Group2AB: .6x11 + .6x12 + .4x13 + .6x14 + .4x15 + .6x16 + .6x17 + .4x18 + .4x19 + .6x110 + .4x111 + .4x112 >= 1.4;

Group3AB: .6x11 + .6x12 + .4x13 + .6x14 + .4x15 + .6x16 + .6x17 + .4x18 + .4x19 + .6x110 + .4x111 + .4x112 >= 1.4;

Group4AB: .6x11 + .6x12 + .4x13 + .6x14 + .4x15 + .6x16 + .6x17 + .4x18 + .4x19 + .6x110 + .4x111 + .4x112 >= 1.4;




Group1GPA: 3.80x11 + 3.81x12 + 3.18x13 + 3.57x14 + 3.65x15 + 3.17x16 + 3.42x17 + 3.13x18 + 3.89x19 + 3.91x110 + 3.25x111 + 3.85x112 >= 10.6;

Group2GPA: 3.80x11 + 3.81x12 + 3.18x13 + 3.57x14 + 3.65x15 + 3.17x16 + 3.42x17 + 3.13x18 + 3.89x19 + 3.91x110 + 3.25x111 + 3.85x112 >= 10.6;

Group3GPA: 3.80x11 + 3.81x12 + 3.18x13 + 3.57x14 + 3.65x15 + 3.17x16 + 3.42x17 + 3.13x18 + 3.89x19 + 3.91x110 + 3.25x111 + 3.85x112 >= 10.6;

Group4GPA: 3.80x11 + 3.81x12 + 3.18x13 + 3.57x14 + 3.65x15 + 3.17x16 + 3.42x17 + 3.13x18 + 3.89x19 + 3.91x110 + 3.25x111 + 3.85x112 >= 10.6;







bin x11, x12, x13, x14, x15, x16, x17, x18, x19, x110, x111, x112, x21, x22, x23, x24, x25, x26, x27, x28, x29, x210, x211, x212, x31, x32, x33, x34, x35, x36, x37, x38, x39, x310, x311, x312, x41, x42, x43, x44, x45, x46, x47, x48, x49, x410, x411, x412;
